Version identifier: 20.1.0.0 | 2020-11-10 | 9bedb6d68
CPXPARAM_LPMethod                                2
CPXPARAM_QPMethod                                2
CPXPARAM_Threads                                 4
CPXPARAM_MIP_Strategy_StartAlgorithm             2
CPXPARAM_Emphasis_MIP                            1
CPXPARAM_MIP_Limits_Solutions                    1
CPXPARAM_TimeLimit                               43193
Retaining values of one MIP start for possible repair.
Tried aggregator 1 time.
MIP Presolve eliminated 6 rows and 0 columns.
Reduced MIP has 14892 rows, 496 columns, and 47403 nonzeros.
Reduced MIP has 496 binaries, 0 generals, 0 SOSs, and 0 indicators.
Presolve time = 0,05 sec. (19,99 ticks)
Probing time = 0,12 sec. (0,97 ticks)
Tried aggregator 1 time.
Detecting symmetries...
Reduced MIP has 14892 rows, 496 columns, and 47403 nonzeros.
Reduced MIP has 496 binaries, 0 generals, 0 SOSs, and 0 indicators.
Presolve time = 0,06 sec. (21,93 ticks)
Probing time = 0,01 sec. (2,22 ticks)
MIP emphasis: integer feasibility.
MIP search method: dynamic search.
Parallel mode: deterministic, using up to 4 threads.
Root relaxation solution time = 1,95 sec. (418,75 ticks)

        Nodes                                         Cuts/
   Node  Left     Objective  IInf  Best Integer    Best Bound    ItCnt     Gap

      0     0       72,0000   324                     72,0000     4858         
      0     0        cutoff                                       5103         
Elapsed time = 10,62 sec. (2045,20 ticks, tree = 0,01 MB, solutions = 0)

Gomory fractional cuts applied:  1

Root node processing (before b&c):
  Real time             =   10,62 sec. (2045,20 ticks)
Parallel b&c, 4 threads:
  Real time             =    0,00 sec. (0,00 ticks)
  Sync time (average)   =    0,00 sec.
  Wait time (average)   =    0,00 sec.
                          ------------
Total (root+branch&cut) =   10,62 sec. (2045,20 ticks)
